
        $ From http://www.csplib.org/Problems/prob009/data/helmut.pdf
        $ Problem number 190
        $ Sequence length : 25
        language ESSENCE' 1.0
        letting sizemaster be 576
        letting sizes be sequence(4,6,9,10,17,21,23,25,31,33,36,38,45,50,81,83,115,133,135,144,146,153,162,279,297)
        